
******************************************************************************
This program contains Ipopt, a library for large-scale nonlinear optimization.
 Ipopt is released as open source code under the Eclipse Public License (EPL).
         For more information visit http://projects.coin-or.org/Ipopt
******************************************************************************

This is Ipopt version 3.12.6, running with linear solver ma57.

Number of nonzeros in equality constraint Jacobian...:        0
Number of nonzeros in inequality constraint Jacobian.:        6
Number of nonzeros in Lagrangian Hessian.............:        6

Total number of variables............................:        3
                     variables with only lower bounds:        0
                variables with lower and upper bounds:        3
                     variables with only upper bounds:        0
Total number of equality constraints.................:        0
Total number of inequality constraints...............:        2
        inequality constraints with only lower bounds:        2
   inequality constraints with lower and upper bounds:        0
        inequality constraints with only upper bounds:        0

iter    objective    inf_pr   inf_du lg(mu)  ||d||  lg(rg) alpha_du alpha_pr  ls
   0 -1.0000000e+03 0.00e+00 4.74e+01  -1.0 0.00e+00    -  0.00e+00 0.00e+00   0
   1 -1.0355896e+03 0.00e+00 4.48e+01  -1.0 4.48e-01   2.0 9.57e-01 1.00e+00f  1
   2 -1.1348490e+03 0.00e+00 3.90e+01  -1.0 1.17e+00   1.5 1.00e+00 1.00e+00f  1
   3 -1.4315399e+03 0.00e+00 3.53e+01  -1.0 3.18e+00   1.0 1.00e+00 1.00e+00f  1
   4 -3.2061452e+03 0.00e+00 5.94e+01  -1.0 1.60e+01   0.6 1.00e+00 1.00e+00f  1
   5 -3.4338373e+03 0.00e+00 6.31e+01  -1.0 7.83e+00   1.0 1.00e+00 2.07e-01f  1
   6 -3.4361848e+03 0.00e+00 2.68e+02  -1.0 4.68e+01    -  1.00e+00 3.46e-04f  1
   7 -3.4559127e+03 0.00e+00 9.85e-01  -1.0 1.99e+00    -  1.00e+00 1.00e+00f  1
   8 -3.4559799e+03 0.00e+00 1.69e-03  -1.7 8.23e-02    -  1.00e+00 1.00e+00f  1
   9 -3.4559999e+03 0.00e+00 9.59e-09  -3.8 2.77e-04    -  1.00e+00 1.00e+00f  1
iter    objective    inf_pr   inf_du lg(mu)  ||d||  lg(rg) alpha_du alpha_pr  ls
  10 -3.4560000e+03 0.00e+00 1.84e-11  -5.7 1.03e-06    -  1.00e+00 1.00e+00f  1
Reallocating memory for MA57: lfact (105)
  11 -3.4560000e+03 0.00e+00 2.84e-14  -8.6 1.28e-08    -  1.00e+00 1.00e+00f  1

Number of Iterations....: 11

                                   (scaled)                 (unscaled)
Objective...............:  -3.4560000014374941e+03   -3.4560000014374941e+03
Dual infeasibility......:   2.8421709430404007e-14    2.8421709430404007e-14
Constraint violation....:   0.0000000000000000e+00    0.0000000000000000e+00
Complementarity.........:   2.5059048110835246e-09    2.5059048110835246e-09
Overall NLP error.......:   2.5059048110835246e-09    2.5059048110835246e-09


Number of objective function evaluations             = 12
Number of objective gradient evaluations             = 12
Number of equality constraint evaluations            = 0
Number of inequality constraint evaluations          = 12
Number of equality constraint Jacobian evaluations   = 0
Number of inequality constraint Jacobian evaluations = 12
Number of Lagrangian Hessian evaluations             = 11
Total CPU secs in IPOPT (w/o function evaluations)   =      0.010
Total CPU secs in NLP function evaluations           =      0.000

EXIT: Optimal Solution Found.

************************ CUTEst statistics ************************


 Package used            :  IPOPT
 Problem                 :  HS37      
 # variables             =               3
 # constraints           =               2
 # objective functions   =        0.2500000E+02
 # objective gradients   =        0.1300000E+02
 # objective Hessians    =        0.1200000E+02
 # Hessian-vector prdct  =        0.0000000E+00
 # constraints functions =        0.2600000E+02
 # constraints gradients =        0.1400000E+02
 # constraints Hessians  =        0.1200000E+02
 Exit code               =               0
 Final f                 =  -0.3456000E+04
 Set up time             =            0.00 seconds
 Solve time              =            0.02 seconds


******************************************************************

System Time =       0.0040000002 s.
